SPARKNaCl/why3-z3/sparknacl-aes.adb_557_40_range_check_1.smt2
;; produced by z3_gnatprove.drv ;;
(set-info :smt-lib-version 2.5)
(set-info :source |VC generated by SPARK 2014|)
(set-info :category industrial)
(set-info :status unknown)
;;; generated by SMT-LIB2 driver
;;; SMT-LIB2 driver: bit-vectors, common part
;;; SMT-LIB2: integer arithmetic
(declare-datatypes ()
  ((int__ref (int__refqtmk (int__content Int)))))

(declare-sort u32 0)

;; "to_rep"
(declare-fun to_rep (u32) (_ BitVec 32))

;; "of_rep"
(declare-fun of_rep ((_ BitVec 32)) u32)

;; "inversion_axiom"
(assert
  (forall ((x u32)) (! (= (of_rep (to_rep x)) x) :pattern ((to_rep x)) )))

;; "range_axiom"
(assert true)

;; "coerce_axiom"
(assert
  (forall ((x (_ BitVec 32)))
    (! (= (to_rep (of_rep x)) x) :pattern ((to_rep (of_rep x))) )))

(declare-sort map1 0)

;; "has_bounds"
(declare-fun has_bounds (map1
  Int
  Int) Bool)

;; "get"
(declare-fun get (map1
  Int) u32)

(declare-datatypes ()
  ((us_split_fields
   (us_split_fieldsqtmk (rec__ada___sparknacl__aes__aes128_key__f map1)))))

(declare-datatypes ()
  ((us_split_fields__ref
   (us_split_fields__refqtmk (us_split_fields__content us_split_fields)))))

(declare-datatypes ()
  ((us_rep (us_repqtmk (us_split_fields1 us_split_fields)))))

;; "dynamic_invariant"
(define-fun dynamic_invariant ((temp___expr_426 us_rep) (temp___is_init_422 Bool) (temp___skip_constant_423 Bool) (temp___do_toplevel_424 Bool) (temp___do_typ_inv_425 Bool)) Bool
  (has_bounds
    (rec__ada___sparknacl__aes__aes128_key__f
      (us_split_fields1 temp___expr_426))
    0
    3))

(declare-sort byte 0)

;; "to_rep"
(declare-fun to_rep1 (byte) (_ BitVec 8))

;; "of_rep"
(declare-fun of_rep1 ((_ BitVec 8)) byte)

;; "inversion_axiom"
(assert
  (forall ((x byte)) (! (= (of_rep1 (to_rep1 x)) x) :pattern ((to_rep1 x)) )))

;; "range_axiom"
(assert true)

;; "coerce_axiom"
(assert
  (forall ((x (_ BitVec 8)))
    (! (= (to_rep1 (of_rep1 x)) x) :pattern ((to_rep1 (of_rep1 x))) )))

(declare-sort map2 0)

;; "has_bounds"
(declare-fun has_bounds1 (map2
  Int
  Int) Bool)

(declare-const raw_key map2)

(declare-sort tinteger_32B 0)

;; "tinteger_32B'int"
(declare-fun tinteger_32Bqtint (tinteger_32B) Int)

;; "tinteger_32B'axiom"
(assert
  (forall ((i tinteger_32B))
    (and
      (<= (- 2147483648) (tinteger_32Bqtint i))
      (<= (tinteger_32Bqtint i) 2147483647))))

;; "in_range"
(define-fun in_range ((x Int)) Bool
  (and (<= (- 2147483648) x) (<= x 2147483647)))

;; "to_rep"
(define-fun to_rep2 ((x tinteger_32B)) Int
  (tinteger_32Bqtint x))

;; "of_rep"
(declare-fun of_rep2 (Int) tinteger_32B)

;; "inversion_axiom"
(assert
  (forall ((x tinteger_32B))
    (! (= (of_rep2 (to_rep2 x)) x) :pattern ((to_rep2 x)) )))

;; "range_axiom"
(assert
  (forall ((x tinteger_32B))
    (! (in_range (to_rep2 x)) :pattern ((to_rep2 x)) )))

;; "coerce_axiom"
(assert
  (forall ((x Int))
    (! (=> (in_range x) (= (to_rep2 (of_rep2 x)) x)) :pattern ((to_rep2
                                                                 (of_rep2 x))) )))

(declare-const key__split_fields map1)

;; "key__split_fields'unused"
(define-fun key__split_fieldsqtunused () us_split_fields__ref
  (us_split_fields__refqtmk (us_split_fieldsqtmk key__split_fields)))

;; "Assume"
(assert
  (dynamic_invariant
    (us_repqtmk (us_split_fieldsqtmk key__split_fields))
    false
    false
    true
    true))

;; "Assume"
(assert (has_bounds1 raw_key 0 15))

(declare-const i Int)

;; "i'unused"
(define-fun iqtunused () int__ref
  (int__refqtmk i))

;; "H"
(assert (= i 0))

;; "int__content'result'unused"
(define-fun int__contentqtresultqtunused () Int
  i)

;; "o"
(define-fun o () Bool
  (ite (<= i 3) true false))

;; "infix <='result'unused"
(define-fun infix_lseqqtresultqtunused () Bool
  o)

;; "int__content'result'unused"
(define-fun int__contentqtresultqtunused1 () Int
  i)

;; "o"
(define-fun o1 () Bool
  (ite (<= 0 i) true false))

;; "infix <='result'unused"
(define-fun infix_lseqqtresultqtunused1 () Bool
  o1)

;; "o"
(define-fun o2 () Bool
  (and o1 o))

;; "andb'result'unused"
(define-fun andbqtresultqtunused () Bool
  o2)

;; "H"
(assert (= o2 true))

;; "o"
(define-fun o3 () us_split_fields
  (us_split_fieldsqtmk key__split_fields))

;; "__split_fields__content'result'unused"
(define-fun us_split_fields__contentqtresultqtunused () us_split_fields
  o3)

;; "temp___loop_entry_1016'unused"
(define-fun temp___loop_entry_1016qtunused () us_rep
  (us_repqtmk o3))

;; "__rep'mk'result'unused"
(define-fun us_repqtmkqtresultqtunused () us_rep
  (us_repqtmk o3))

(declare-const key__split_fields1 map1)

(declare-const i1 Int)

;; "i'unused"
(define-fun iqtunused1 () int__ref
  (int__refqtmk i1))

;; "key__split_fields'unused"
(define-fun key__split_fieldsqtunused1 () us_split_fields__ref
  (us_split_fields__refqtmk (us_split_fieldsqtmk key__split_fields1)))

;; "Assume"
(assert
  (= (and (ite (and
                 (dynamic_invariant
                   (us_repqtmk (us_split_fieldsqtmk key__split_fields1))
                   false
                   true
                   true
                   true)
                 (forall ((temp___1017 Int))
                   (=>
                     (and (<= 0 temp___1017) (<= temp___1017 3))
                     (=>
                       (or
                         (< 3 temp___1017)
                         (or (< temp___1017 0) (<= i1 temp___1017)))
                       (= (get key__split_fields1 temp___1017) (get
                                                                 key__split_fields
                                                                 temp___1017))))))
            true
            false) (ite (and (<= 0 i1) (<= i1 3)) true false)) true))

;; "o"
(define-fun o4 () us_split_fields
  (us_split_fieldsqtmk key__split_fields1))

;; "__split_fields__content'result'unused"
(define-fun us_split_fields__contentqtresultqtunused1 () us_split_fields
  o4)

;; "__rep'mk'result'unused"
(define-fun us_repqtmkqtresultqtunused1 () us_rep
  (us_repqtmk o4))

;; "_q 'unused"
(define-fun usq_qtunused () us_split_fields
  o4)

;; "__split_fields'result'unused"
(define-fun us_split_fieldsqtresultqtunused () us_split_fields
  o4)

;; "o"
(define-fun o5 () us_split_fields
  (us_split_fieldsqtmk key__split_fields1))

;; "__split_fields__content'result'unused"
(define-fun us_split_fields__contentqtresultqtunused2 () us_split_fields
  o5)

;; "__rep'mk'result'unused"
(define-fun us_repqtmkqtresultqtunused2 () us_rep
  (us_repqtmk o5))

;; "__split_fields'result'unused"
(define-fun us_split_fieldsqtresultqtunused1 () us_split_fields
  o5)

;; "rec__ada___sparknacl__aes__aes128_key__f'result'unused"
(define-fun rec__ada___sparknacl__aes__aes128_key__fqtresultqtunused 
  () map1
  key__split_fields1)

;; "int__content'result'unused"
(define-fun int__contentqtresultqtunused2 () Int
  i1)

;; "o"
(define-fun o6 () Int
  (* 4 i1))

;; "infix *'result'unused"
(define-fun infix_asqtresultqtunused () Int
  o6)

;; "temp___1007"
(define-fun temp___1007 () Int
  (+ o6 3))

;; "infix +'result'unused"
(define-fun infix_plqtresultqtunused () Int
  temp___1007)

;; "int__content'result'unused"
(define-fun int__contentqtresultqtunused3 () Int
  i1)

;; "temp___1006"
(define-fun temp___1006 () Int
  (* 4 i1))

;; "infix *'result'unused"
(define-fun infix_asqtresultqtunused1 () Int
  temp___1006)

;; "H"
(assert (<= temp___1006 temp___1007))

;; Goal "def'vc"
;; File "sparknacl-aes.ads", line 29, characters 0-0
(assert
  (not (<= 0 temp___1006)))

(check-sat)
